************************************************************************
file with basedata            : a107_.bas
initial value random generator: 1987
************************************************************************
projects                      :  1
jobs (incl. supersource/sink ):  12
horizon bound                 :  80
RESOURCES
  - renewable                 :  4   R
  - nonrenewable              :  0   N
  - doubly constrained        :  0   D
  - partially renewable       :  0   P
************************************************************************
PROJECT INFORMATION:
prono.  #jobs rel.date duedate tardcost  CPM-Time
    1     10      0       11        3       11
************************************************************************
PRECEDENCE RELATIONS:
jobno.    #modes  #successors   successors
   1        1          3           2   3   4
   2        3          2           5   6
   3        3          2           7   9
   4        3          3           5   7   8
   5        3          3           9  10  11
   6        3          3           7   9  10
   7        3          1          11
   8        3          2          10  11
   9        3          1          12
  10        3          1          12
  11        3          1          12
  12        1          0        
************************************************************************
REQUESTS/DURATIONS:
jobno. mode duration  R 1  R 2  R 3  R 4
  1      1     0       0    0    0    0
  2      1     1       0   10    6    4
         2     3       4    5    0    0
         3     8       0    0    4    0
  3      1     2       6    8    5    5
         2     3       6    7    5    4
         3     7       5    0    0    2
  4      1     3       9   10    0    9
         2     6       6    8    0    0
         3     9       6    7    3    9
  5      1     3       6    0    6    6
         2     6       5    6    6    0
         3     7       3    4    5    4
  6      1     1       7    5    0    5
         2     4       7    3    8    3
         3     8       6    0    8    0
  7      1     3       3    0    7   10
         2     6       0    8    6    9
         3     9       3    7    0    8
  8      1     4       7    5    6    8
         2     5       5    4    4    8
         3     6       5    0    3    5
  9      1     1      10    4    6    5
         2     2       5    0    4    3
         3    10       3    1    2    0
 10      1     4       0    4   10    6
         2     9       0    4    6    5
         3    10       0    3    5    0
 11      1     1      10    0    8    0
         2     5       9   10    8    3
         3     6       8    7    0    2
 12      1     0       0    0    0    0
************************************************************************
RESOURCE AVAILABILITIES:
  R 1  R 2  R 3  R 4
   10   11    8   11
************************************************************************
